3967.0 132131.0 
3970.0 131840.0 
3968.0 132091.0 
3997.0 131621.0 
4009.0 131266.0 
3942.0 132832.0 
4068.0 129629.0 
4052.0 130166.0 
4090.0 129362.0 
3951.0 132505.0 
4115.0 128561.0 
4112.0 128970.0 
4016.0 130476.0 
